letting n =  10
letting blocks =  [[1, 3], [1, 7], [1, 10], [2, 4], [2, 7], [3, 4], [3, 5], [3, 6], [3, 10], [4, 1], [4, 4], [4, 7], [5, 2], [5, 5], [5, 6], [5, 9], [5, 10], [6, 1], [6, 2], [6, 9], [7, 1], [7, 2], [7, 3], [7, 4], [7, 7], [7, 8], [8, 2], [8, 3], [8, 5], [8, 7], [8, 9], [9, 1], [9, 2], [9, 3], [9, 4], [9, 9], [10, 2], [10, 3], [10, 4], [10, 10]]
